0 48 21
1 52 26
2 50 30
3 55 34
4 54 38
5 50 40
6 51 42
7 55 45
8 55 50
9 50 50
10 41 46
11 45 42
12 45 35
13 40 37
14 38 33
15 33 34
16 29 39
17 33 44
18 35 51
19 30 50
20 22 53
21 21 48
22 21 45
23 21 36
24 20 30
25 26 29
26 22 22
27 27 24
28 30 20
29 35 16
30 36 6
31 26 13
32 15 5
33 15 14
34 16 19
35 12 17
36 6 25
37 11 28
38 12 38
39 7 43
40 9 56
41 15 56
42 10 70
43 17 64
44 26 59
45 30 60
46 31 76
47 40 66
48 35 60
49 40 60
50 47 66
51 50 70
52 55 65
53 57 72
54 70 64
55 62 57
56 55 57
57 62 48
58 67 41
59 62 35
60 65 27
61 62 24
62 55 20
63 60 15
64 66 14
65 66 8
66 64 4
67 59 5
68 50 4
69 54 10
70 50 15
71 44 13
72 40 20
73 36 26
74 43 26